(set-info :smt-lib-version 2.6)
(set-logic QF_NIA)
(set-info :source |
Generated by: Cristina Borralleras, Daniel Larraz, Albert Oliveras, Enric Rodriguez-Carbonell, Albert Rubio
Generated on: 2017-04-27
Generator: VeryMax
Application: Termination proving
Target solver: barcelogic
|)
(set-info :license "https://creativecommons.org/licenses/by/4.0/")
(set-info :category "industrial")
(set-info :status unsat)
(declare-fun Nl2main_a1 () Int)
(declare-fun Nl2main_b1 () Int)
(declare-fun Nl2main_q1 () Int)
(declare-fun lam0n0 () Int)
(declare-fun lam0n1 () Int)
(declare-fun lam0n2 () Int)
(declare-fun lam0n3 () Int)
(declare-fun lam0n4 () Int)
(declare-fun lam0n5 () Int)
(declare-fun lam0n6 () Int)
(declare-fun Nl2CT1 () Int)
(declare-fun lam1n0 () Int)
(declare-fun lam1n1 () Int)
(declare-fun lam1n2 () Int)
(declare-fun lam1n3 () Int)
(declare-fun lam1n4 () Int)
(declare-fun lam1n5 () Int)
(declare-fun lam1n6 () Int)
(declare-fun lam2n0 () Int)
(declare-fun lam2n1 () Int)
(declare-fun lam2n2 () Int)
(declare-fun lam2n3 () Int)
(declare-fun lam2n4 () Int)
(declare-fun lam2n5 () Int)
(declare-fun lam3n0 () Int)
(declare-fun lam3n1 () Int)
(declare-fun lam3n2 () Int)
(declare-fun lam3n3 () Int)
(declare-fun lam3n4 () Int)
(declare-fun lam3n5 () Int)
(declare-fun lam4n0 () Int)
(declare-fun lam4n1 () Int)
(declare-fun lam4n2 () Int)
(declare-fun lam4n3 () Int)
(declare-fun lam4n4 () Int)
(declare-fun lam5n0 () Int)
(declare-fun lam5n1 () Int)
(declare-fun lam5n2 () Int)
(declare-fun lam5n3 () Int)
(declare-fun lam5n4 () Int)
(declare-fun lam8n0 () Int)
(declare-fun lam8n1 () Int)
(declare-fun lam8n2 () Int)
(declare-fun lam8n3 () Int)
(declare-fun lam8n4 () Int)
(declare-fun lam8n5 () Int)
(declare-fun lam8n6 () Int)
(declare-fun RFN1_CT () Int)
(declare-fun RFN1_main_a () Int)
(declare-fun RFN1_main_b () Int)
(declare-fun RFN1_main_q () Int)
(declare-fun lam11n0 () Int)
(declare-fun lam11n1 () Int)
(declare-fun lam11n2 () Int)
(declare-fun lam11n3 () Int)
(declare-fun lam11n4 () Int)
(declare-fun lam11n5 () Int)
(declare-fun lam14n0 () Int)
(declare-fun lam14n1 () Int)
(declare-fun lam14n2 () Int)
(declare-fun lam14n3 () Int)
(declare-fun lam14n4 () Int)
(declare-fun lam12n0 () Int)
(declare-fun lam12n1 () Int)
(declare-fun lam12n2 () Int)
(declare-fun lam12n3 () Int)
(declare-fun lam12n4 () Int)
(declare-fun lam13n0 () Int)
(declare-fun lam13n1 () Int)
(declare-fun lam13n2 () Int)
(declare-fun lam13n3 () Int)
(declare-fun lam13n4 () Int)
(declare-fun lam15n0 () Int)
(declare-fun lam15n1 () Int)
(declare-fun lam15n2 () Int)
(declare-fun lam15n3 () Int)
(declare-fun lam15n4 () Int)
(assert ( and ( <= ( - 4 ) Nl2main_a1 ) ( <= Nl2main_a1 4 ) ( <= ( - 4 ) Nl2main_b1 ) ( <= Nl2main_b1 4 ) ( <= ( - 4 ) Nl2main_q1 ) ( <= Nl2main_q1 4 ) ))
(assert ( or ( and ( >= lam0n0 0 ) ( >= lam0n1 0 ) ( >= lam0n2 0 ) ( >= lam0n3 0 ) ( >= lam0n4 0 ) ( >= lam0n5 0 ) ( >= lam0n6 0 ) ( > ( + ( * 1 lam0n2 ) ( * ( - 1 ) lam0n3 ) ( * 2 lam0n4 ) ( * 7 lam0n5 ) ( * Nl2CT1 lam0n6 ) ( - 1 ) ) 0 ) ( = ( + ( * ( - 1 ) lam0n0 ) ( * ( - 1 ) lam0n3 ) ( * ( - 1 ) lam0n4 ) ( * Nl2main_a1 lam0n6 ) ) 0 ) ( = ( + ( * 1 lam0n0 ) ( * ( - 1 ) lam0n1 ) ( * ( - 1 ) lam0n4 ) ( * 1 lam0n5 ) ( * Nl2main_b1 lam0n6 ) ) 0 ) ( = ( + ( * ( - 1 ) lam0n2 ) ( * ( - 1 ) lam0n3 ) ( * ( - 1 ) lam0n4 ) ( * ( - 4 ) lam0n5 ) ( * Nl2main_q1 lam0n6 ) ) 0 ) ) ( and ( >= lam1n0 0 ) ( >= lam1n1 0 ) ( >= lam1n2 0 ) ( >= lam1n3 0 ) ( >= lam1n4 0 ) ( >= lam1n5 0 ) ( >= lam1n6 0 ) ( > ( + ( * 1 lam1n2 ) ( * ( - 1 ) lam1n3 ) ( * 2 lam1n4 ) ( * 7 lam1n5 ) ( * Nl2CT1 lam1n6 ) ( - 1 ( + ( + ( + Nl2CT1 ( * Nl2main_a1 0 ) ) ( * Nl2main_b1 0 ) ) ( * Nl2main_q1 ( - 1 ) ) ) ) ) 0 ) ( = ( + ( * ( - 1 ) lam1n0 ) ( * ( - 1 ) lam1n3 ) ( * ( - 1 ) lam1n4 ) ( * Nl2main_a1 lam1n6 ) ( - ( + ( + ( + 0 ( * Nl2main_a1 3 ) ) ( * Nl2main_b1 4 ) ) ( * Nl2main_q1 1 ) ) ) ) 0 ) ( = ( + ( * 1 lam1n0 ) ( * ( - 1 ) lam1n1 ) ( * ( - 1 ) lam1n4 ) ( * 1 lam1n5 ) ( * Nl2main_b1 lam1n6 ) ( - ( + ( + 0 ( * Nl2main_a1 ( - 4 ) ) ) ( * Nl2main_b1 3 ) ) ) ) 0 ) ( = ( + ( * ( - 1 ) lam1n2 ) ( * ( - 1 ) lam1n3 ) ( * ( - 1 ) lam1n4 ) ( * ( - 4 ) lam1n5 ) ( * Nl2main_q1 lam1n6 ) ( - ( + 0 ( * Nl2main_q1 1 ) ) ) ) 0 ) ) ))
(assert ( or ( and ( >= lam2n0 0 ) ( >= lam2n1 0 ) ( >= lam2n2 0 ) ( >= lam2n3 0 ) ( >= lam2n4 0 ) ( >= lam2n5 0 ) ( > ( + ( * 1 lam2n1 ) ( * 1 lam2n2 ) ( * ( - 1 ) lam2n3 ) ( * 7 lam2n4 ) ( * Nl2CT1 lam2n5 ) ( - 1 ) ) 0 ) ( = ( + ( * ( - 1 ) lam2n0 ) ( * ( - 1 ) lam2n3 ) ( * Nl2main_a1 lam2n5 ) ) 0 ) ( = ( + ( * 1 lam2n0 ) ( * 1 lam2n1 ) ( * 1 lam2n4 ) ( * Nl2main_b1 lam2n5 ) ) 0 ) ( = ( + ( * ( - 1 ) lam2n2 ) ( * ( - 1 ) lam2n3 ) ( * ( - 4 ) lam2n4 ) ( * Nl2main_q1 lam2n5 ) ) 0 ) ) ( and ( >= lam3n0 0 ) ( >= lam3n1 0 ) ( >= lam3n2 0 ) ( >= lam3n3 0 ) ( >= lam3n4 0 ) ( >= lam3n5 0 ) ( > ( + ( * 1 lam3n1 ) ( * 1 lam3n2 ) ( * ( - 1 ) lam3n3 ) ( * 7 lam3n4 ) ( * Nl2CT1 lam3n5 ) ( - 1 ( + ( + ( + Nl2CT1 ( * Nl2main_a1 0 ) ) ( * Nl2main_b1 0 ) ) ( * Nl2main_q1 ( - 1 ) ) ) ) ) 0 ) ( = ( + ( * ( - 1 ) lam3n0 ) ( * ( - 1 ) lam3n3 ) ( * Nl2main_a1 lam3n5 ) ( - ( + ( + ( + 0 ( * Nl2main_a1 3 ) ) ( * Nl2main_b1 4 ) ) ( * Nl2main_q1 1 ) ) ) ) 0 ) ( = ( + ( * 1 lam3n0 ) ( * 1 lam3n1 ) ( * 1 lam3n4 ) ( * Nl2main_b1 lam3n5 ) ( - ( + ( + 0 ( * Nl2main_a1 ( - 4 ) ) ) ( * Nl2main_b1 3 ) ) ) ) 0 ) ( = ( + ( * ( - 1 ) lam3n2 ) ( * ( - 1 ) lam3n3 ) ( * ( - 4 ) lam3n4 ) ( * Nl2main_q1 lam3n5 ) ( - ( + 0 ( * Nl2main_q1 1 ) ) ) ) 0 ) ) ))
(assert ( or ( and ( >= lam4n0 0 ) ( >= lam4n1 0 ) ( >= lam4n2 0 ) ( >= lam4n3 0 ) ( >= lam4n4 0 ) ( > ( + ( * 1 lam4n0 ) ( * 1 lam4n1 ) ( * ( - 1 ) lam4n2 ) ( * 7 lam4n3 ) ( * Nl2CT1 lam4n4 ) ( - 1 ) ) 0 ) ( = ( + ( * 1 lam4n0 ) ( * ( - 1 ) lam4n2 ) ( * Nl2main_a1 lam4n4 ) ) 0 ) ( = ( + ( * ( - 1 ) lam4n0 ) ( * 1 lam4n3 ) ( * Nl2main_b1 lam4n4 ) ) 0 ) ( = ( + ( * ( - 1 ) lam4n1 ) ( * ( - 1 ) lam4n2 ) ( * ( - 4 ) lam4n3 ) ( * Nl2main_q1 lam4n4 ) ) 0 ) ) ( and ( >= lam5n0 0 ) ( >= lam5n1 0 ) ( >= lam5n2 0 ) ( >= lam5n3 0 ) ( >= lam5n4 0 ) ( > ( + ( * 1 lam5n0 ) ( * 1 lam5n1 ) ( * ( - 1 ) lam5n2 ) ( * 7 lam5n3 ) ( * Nl2CT1 lam5n4 ) ( - 1 ( + ( + ( + Nl2CT1 ( * Nl2main_a1 0 ) ) ( * Nl2main_b1 0 ) ) ( * Nl2main_q1 ( - 1 ) ) ) ) ) 0 ) ( = ( + ( * 1 lam5n0 ) ( * ( - 1 ) lam5n2 ) ( * Nl2main_a1 lam5n4 ) ( - ( + ( + ( + 0 ( * Nl2main_a1 3 ) ) ( * Nl2main_b1 4 ) ) ( * Nl2main_q1 1 ) ) ) ) 0 ) ( = ( + ( * ( - 1 ) lam5n0 ) ( * 1 lam5n3 ) ( * Nl2main_b1 lam5n4 ) ( - ( + ( + 0 ( * Nl2main_a1 ( - 4 ) ) ) ( * Nl2main_b1 3 ) ) ) ) 0 ) ( = ( + ( * ( - 1 ) lam5n1 ) ( * ( - 1 ) lam5n2 ) ( * ( - 4 ) lam5n3 ) ( * Nl2main_q1 lam5n4 ) ( - ( + 0 ( * Nl2main_q1 1 ) ) ) ) 0 ) ) ))
(assert ( and ( or ( and ( >= lam0n0 0 ) ( >= lam0n1 0 ) ( >= lam0n2 0 ) ( >= lam0n3 0 ) ( >= lam0n4 0 ) ( >= lam0n5 0 ) ( >= lam0n6 0 ) ( > ( + ( * 1 lam0n2 ) ( * ( - 1 ) lam0n3 ) ( * 2 lam0n4 ) ( * 7 lam0n5 ) ( * Nl2CT1 lam0n6 ) ( - 1 ) ) 0 ) ( = ( + ( * ( - 1 ) lam0n0 ) ( * ( - 1 ) lam0n3 ) ( * ( - 1 ) lam0n4 ) ( * Nl2main_a1 lam0n6 ) ) 0 ) ( = ( + ( * 1 lam0n0 ) ( * ( - 1 ) lam0n1 ) ( * ( - 1 ) lam0n4 ) ( * 1 lam0n5 ) ( * Nl2main_b1 lam0n6 ) ) 0 ) ( = ( + ( * ( - 1 ) lam0n2 ) ( * ( - 1 ) lam0n3 ) ( * ( - 1 ) lam0n4 ) ( * ( - 4 ) lam0n5 ) ( * Nl2main_q1 lam0n6 ) ) 0 ) ) ( and ( >= lam8n0 0 ) ( >= lam8n1 0 ) ( >= lam8n2 0 ) ( >= lam8n3 0 ) ( >= lam8n4 0 ) ( >= lam8n5 0 ) ( >= lam8n6 0 ) ( > ( + ( * 1 lam8n2 ) ( * ( - 1 ) lam8n3 ) ( * 2 lam8n4 ) ( * 7 lam8n5 ) ( * Nl2CT1 lam8n6 ) ( - 1 ( - ( + ( + ( + RFN1_CT ( * RFN1_main_a 0 ) ) ( * RFN1_main_b 0 ) ) ( * RFN1_main_q ( - 1 ) ) ) RFN1_CT ) ) ) 0 ) ( = ( + ( * ( - 1 ) lam8n0 ) ( * ( - 1 ) lam8n3 ) ( * ( - 1 ) lam8n4 ) ( * Nl2main_a1 lam8n6 ) ( - ( - ( + ( + ( + 0 ( * RFN1_main_a 3 ) ) ( * RFN1_main_b 4 ) ) ( * RFN1_main_q 1 ) ) RFN1_main_a ) ) ) 0 ) ( = ( + ( * 1 lam8n0 ) ( * ( - 1 ) lam8n1 ) ( * ( - 1 ) lam8n4 ) ( * 1 lam8n5 ) ( * Nl2main_b1 lam8n6 ) ( - ( - ( + ( + 0 ( * RFN1_main_a ( - 4 ) ) ) ( * RFN1_main_b 3 ) ) RFN1_main_b ) ) ) 0 ) ( = ( + ( * ( - 1 ) lam8n2 ) ( * ( - 1 ) lam8n3 ) ( * ( - 1 ) lam8n4 ) ( * ( - 4 ) lam8n5 ) ( * Nl2main_q1 lam8n6 ) ( - ( - ( + 0 ( * RFN1_main_q 1 ) ) RFN1_main_q ) ) ) 0 ) ) ) ( or ( and ( >= lam2n0 0 ) ( >= lam2n1 0 ) ( >= lam2n2 0 ) ( >= lam2n3 0 ) ( >= lam2n4 0 ) ( >= lam2n5 0 ) ( > ( + ( * 1 lam2n1 ) ( * 1 lam2n2 ) ( * ( - 1 ) lam2n3 ) ( * 7 lam2n4 ) ( * Nl2CT1 lam2n5 ) ( - 1 ) ) 0 ) ( = ( + ( * ( - 1 ) lam2n0 ) ( * ( - 1 ) lam2n3 ) ( * Nl2main_a1 lam2n5 ) ) 0 ) ( = ( + ( * 1 lam2n0 ) ( * 1 lam2n1 ) ( * 1 lam2n4 ) ( * Nl2main_b1 lam2n5 ) ) 0 ) ( = ( + ( * ( - 1 ) lam2n2 ) ( * ( - 1 ) lam2n3 ) ( * ( - 4 ) lam2n4 ) ( * Nl2main_q1 lam2n5 ) ) 0 ) ) ( and ( >= lam11n0 0 ) ( >= lam11n1 0 ) ( >= lam11n2 0 ) ( >= lam11n3 0 ) ( >= lam11n4 0 ) ( >= lam11n5 0 ) ( > ( + ( * 1 lam11n1 ) ( * 1 lam11n2 ) ( * ( - 1 ) lam11n3 ) ( * 7 lam11n4 ) ( * Nl2CT1 lam11n5 ) ( - 1 ( - ( + ( + ( + RFN1_CT ( * RFN1_main_a 0 ) ) ( * RFN1_main_b 0 ) ) ( * RFN1_main_q ( - 1 ) ) ) RFN1_CT ) ) ) 0 ) ( = ( + ( * ( - 1 ) lam11n0 ) ( * ( - 1 ) lam11n3 ) ( * Nl2main_a1 lam11n5 ) ( - ( - ( + ( + ( + 0 ( * RFN1_main_a 3 ) ) ( * RFN1_main_b 4 ) ) ( * RFN1_main_q 1 ) ) RFN1_main_a ) ) ) 0 ) ( = ( + ( * 1 lam11n0 ) ( * 1 lam11n1 ) ( * 1 lam11n4 ) ( * Nl2main_b1 lam11n5 ) ( - ( - ( + ( + 0 ( * RFN1_main_a ( - 4 ) ) ) ( * RFN1_main_b 3 ) ) RFN1_main_b ) ) ) 0 ) ( = ( + ( * ( - 1 ) lam11n2 ) ( * ( - 1 ) lam11n3 ) ( * ( - 4 ) lam11n4 ) ( * Nl2main_q1 lam11n5 ) ( - ( - ( + 0 ( * RFN1_main_q 1 ) ) RFN1_main_q ) ) ) 0 ) ) ) ( or ( and ( >= lam4n0 0 ) ( >= lam4n1 0 ) ( >= lam4n2 0 ) ( >= lam4n3 0 ) ( >= lam4n4 0 ) ( > ( + ( * 1 lam4n0 ) ( * 1 lam4n1 ) ( * ( - 1 ) lam4n2 ) ( * 7 lam4n3 ) ( * Nl2CT1 lam4n4 ) ( - 1 ) ) 0 ) ( = ( + ( * 1 lam4n0 ) ( * ( - 1 ) lam4n2 ) ( * Nl2main_a1 lam4n4 ) ) 0 ) ( = ( + ( * ( - 1 ) lam4n0 ) ( * 1 lam4n3 ) ( * Nl2main_b1 lam4n4 ) ) 0 ) ( = ( + ( * ( - 1 ) lam4n1 ) ( * ( - 1 ) lam4n2 ) ( * ( - 4 ) lam4n3 ) ( * Nl2main_q1 lam4n4 ) ) 0 ) ) ( and ( >= lam14n0 0 ) ( >= lam14n1 0 ) ( >= lam14n2 0 ) ( >= lam14n3 0 ) ( >= lam14n4 0 ) ( > ( + ( * 1 lam14n0 ) ( * 1 lam14n1 ) ( * ( - 1 ) lam14n2 ) ( * 7 lam14n3 ) ( * Nl2CT1 lam14n4 ) ( - 1 ( - ( + ( + ( + RFN1_CT ( * RFN1_main_a 0 ) ) ( * RFN1_main_b 0 ) ) ( * RFN1_main_q ( - 1 ) ) ) RFN1_CT ) ) ) 0 ) ( = ( + ( * 1 lam14n0 ) ( * ( - 1 ) lam14n2 ) ( * Nl2main_a1 lam14n4 ) ( - ( - ( + ( + ( + 0 ( * RFN1_main_a 3 ) ) ( * RFN1_main_b 4 ) ) ( * RFN1_main_q 1 ) ) RFN1_main_a ) ) ) 0 ) ( = ( + ( * ( - 1 ) lam14n0 ) ( * 1 lam14n3 ) ( * Nl2main_b1 lam14n4 ) ( - ( - ( + ( + 0 ( * RFN1_main_a ( - 4 ) ) ) ( * RFN1_main_b 3 ) ) RFN1_main_b ) ) ) 0 ) ( = ( + ( * ( - 1 ) lam14n1 ) ( * ( - 1 ) lam14n2 ) ( * ( - 4 ) lam14n3 ) ( * Nl2main_q1 lam14n4 ) ( - ( - ( + 0 ( * RFN1_main_q 1 ) ) RFN1_main_q ) ) ) 0 ) ) ) ))
(assert ( and ( and ( and ( >= lam12n0 0 ) ( >= lam12n1 0 ) ( >= lam12n2 0 ) ( >= lam12n3 0 ) ( >= lam12n4 0 ) ( > ( + ( * 1 lam12n0 ) ( * 1 lam12n1 ) ( * ( - 1 ) lam12n2 ) ( * 7 lam12n3 ) ( * Nl2CT1 lam12n4 ) ( - 1 ( - RFN1_CT ) ) ) 0 ) ( = ( + ( * 1 lam12n0 ) ( * ( - 1 ) lam12n2 ) ( * Nl2main_a1 lam12n4 ) ( - ( - RFN1_main_a ) ) ) 0 ) ( = ( + ( * ( - 1 ) lam12n0 ) ( * 1 lam12n3 ) ( * Nl2main_b1 lam12n4 ) ( - ( - RFN1_main_b ) ) ) 0 ) ( = ( + ( * ( - 1 ) lam12n1 ) ( * ( - 1 ) lam12n2 ) ( * ( - 4 ) lam12n3 ) ( * Nl2main_q1 lam12n4 ) ( - ( - RFN1_main_q ) ) ) 0 ) ) ( and ( >= lam13n0 0 ) ( >= lam13n1 0 ) ( >= lam13n2 0 ) ( >= lam13n3 0 ) ( >= lam13n4 0 ) ( > ( + ( * 1 lam13n0 ) ( * 1 lam13n1 ) ( * ( - 1 ) lam13n2 ) ( * 7 lam13n3 ) ( * Nl2CT1 lam13n4 ) ( - 1 ( + ( - ( + ( + ( + RFN1_CT ( * RFN1_main_a 0 ) ) ( * RFN1_main_b 0 ) ) ( * RFN1_main_q ( - 1 ) ) ) RFN1_CT ) 1 ) ) ) 0 ) ( = ( + ( * 1 lam13n0 ) ( * ( - 1 ) lam13n2 ) ( * Nl2main_a1 lam13n4 ) ( - ( - ( + ( + ( + 0 ( * RFN1_main_a 3 ) ) ( * RFN1_main_b 4 ) ) ( * RFN1_main_q 1 ) ) RFN1_main_a ) ) ) 0 ) ( = ( + ( * ( - 1 ) lam13n0 ) ( * 1 lam13n3 ) ( * Nl2main_b1 lam13n4 ) ( - ( - ( + ( + 0 ( * RFN1_main_a ( - 4 ) ) ) ( * RFN1_main_b 3 ) ) RFN1_main_b ) ) ) 0 ) ( = ( + ( * ( - 1 ) lam13n1 ) ( * ( - 1 ) lam13n2 ) ( * ( - 4 ) lam13n3 ) ( * Nl2main_q1 lam13n4 ) ( - ( - ( + 0 ( * RFN1_main_q 1 ) ) RFN1_main_q ) ) ) 0 ) ) ) ( and ( >= lam15n0 0 ) ( >= lam15n1 0 ) ( >= lam15n2 0 ) ( >= lam15n3 0 ) ( >= lam15n4 0 ) ( > ( + ( * 1 lam15n0 ) ( * 1 lam15n1 ) ( * ( - 1 ) lam15n2 ) ( * 7 lam15n3 ) ( * ( + ( - Nl2CT1 ) 1 ) lam15n4 ) ( - 1 ) ) 0 ) ( = ( + ( * 1 lam15n0 ) ( * ( - 1 ) lam15n2 ) ( * ( - Nl2main_a1 ) lam15n4 ) ) 0 ) ( = ( + ( * ( - 1 ) lam15n0 ) ( * 1 lam15n3 ) ( * ( - Nl2main_b1 ) lam15n4 ) ) 0 ) ( = ( + ( * ( - 1 ) lam15n1 ) ( * ( - 1 ) lam15n2 ) ( * ( - 4 ) lam15n3 ) ( * ( - Nl2main_q1 ) lam15n4 ) ) 0 ) ) ))
(check-sat)
(exit)
